c A SAT instance generated from a 3-CNF formula that had 32 clauses and 8 variables
p cnf 8 32
4 -7 -5 0
-7 -8 -3 0
7 -8 2 0
3 -5 -7 0
-4 -3 -5 0
3 8 -6 0
5 6 8 0
-8 -7 -5 0
5 8 -2 0
-5 -4 1 0
2 3 8 0
3 -1 6 0
3 2 -5 0
-1 4 -8 0
8 5 4 0
-2 -8 -1 0
4 -7 6 0
6 -2 8 0
4 1 7 0
5 6 -8 0
-4 1 -5 0
7 -6 8 0
8 6 -2 0
-6 -7 4 0
-7 -1 -6 0
-8 2 4 0
6 2 7 0
4 -5 7 0
-8 6 -7 0
3 -7 -8 0
6 -4 -7 0
-2 -6 1 0
